c Created with the Wolfram Language : www.wolfram.com
c 
p edge 100 477
e 1 4
e 3 4
e 2 6
e 1 7
e 2 8
e 7 9
e 7 10
e 5 11
e 1 12
e 5 12
e 6 14
e 7 14
e 2 17
e 4 17
e 5 17
e 12 17
e 16 20
e 17 20
e 11 21
e 13 21
e 19 21
e 14 23
e 4 24
e 5 24
e 20 24
e 1 25
e 17 25
e 4 26
e 9 26
e 17 26
e 10 27
e 3 28
e 16 28
e 17 28
e 7 29
e 9 29
e 17 29
e 26 29
e 14 30
e 15 31
e 16 31
e 12 32
e 3 33
e 7 33
e 21 33
e 25 33
e 26 33
e 24 34
e 6 35
e 20 35
e 22 35
e 3 36
e 8 36
e 27 36
e 34 36
e 18 37
e 26 37
e 32 37
e 35 37
e 9 38
e 28 38
e 1 39
e 8 39
e 19 39
e 21 39
e 26 39
e 16 41
e 22 41
e 27 41
e 10 42
e 17 42
e 29 42
e 16 43
e 18 43
e 24 43
e 25 43
e 28 43
e 15 44
e 16 44
e 19 44
e 23 44
e 14 45
e 23 45
e 29 45
e 3 46
e 25 46
e 26 46
e 29 46
e 32 46
e 33 46
e 2 47
e 5 47
e 11 47
e 13 47
e 27 47
e 4 49
e 16 49
e 23 49
e 29 49
e 33 49
e 44 49
e 43 50
e 46 50
e 7 51
e 10 51
e 18 51
e 26 51
e 27 51
e 48 51
e 50 51
e 21 52
e 27 52
e 38 52
e 23 53
e 6 54
e 17 54
e 22 54
e 29 54
e 33 54
e 44 54
e 13 55
e 19 55
e 31 55
e 49 55
e 50 55
e 54 55
e 5 56
e 14 56
e 22 56
e 43 56
e 44 56
e 52 56
e 13 57
e 33 57
e 42 57
e 43 57
e 48 57
e 56 57
e 4 58
e 5 58
e 15 58
e 25 58
e 44 58
e 48 58
e 10 59
e 17 59
e 23 59
e 24 59
e 51 59
e 28 60
e 37 60
e 48 60
e 10 61
e 11 61
e 14 61
e 16 61
e 21 61
e 35 61
e 39 61
e 13 62
e 14 62
e 18 62
e 22 62
e 25 62
e 28 62
e 38 62
e 41 62
e 57 62
e 8 63
e 12 63
e 20 63
e 27 63
e 33 63
e 35 63
e 41 63
e 53 63
e 3 64
e 17 64
e 19 64
e 51 64
e 57 64
e 61 64
e 5 65
e 29 65
e 46 65
e 56 65
e 62 65
e 63 65
e 8 66
e 11 66
e 25 66
e 40 66
e 46 66
e 52 66
e 64 66
e 2 67
e 19 67
e 24 67
e 25 67
e 26 67
e 38 67
e 41 67
e 44 67
e 54 67
e 2 68
e 6 68
e 9 68
e 24 68
e 27 68
e 31 68
e 48 68
e 55 68
e 56 68
e 35 69
e 37 69
e 46 69
e 49 69
e 50 69
e 60 69
e 14 70
e 15 70
e 18 70
e 24 70
e 37 70
e 51 70
e 56 70
e 1 71
e 2 71
e 12 71
e 14 71
e 20 71
e 25 71
e 33 71
e 39 71
e 61 71
e 6 72
e 9 72
e 20 72
e 53 72
e 55 72
e 67 72
e 25 73
e 37 73
e 40 73
e 46 73
e 49 73
e 68 73
e 21 74
e 25 74
e 37 74
e 48 74
e 7 75
e 36 75
e 60 75
e 72 75
e 4 76
e 51 76
e 54 76
e 70 76
e 75 76
e 16 77
e 18 77
e 31 77
e 39 77
e 41 77
e 53 77
e 61 77
e 13 78
e 33 78
e 37 78
e 42 78
e 51 78
e 66 78
e 76 78
e 8 79
e 11 79
e 18 79
e 22 79
e 40 79
e 47 79
e 3 80
e 20 80
e 27 80
e 33 80
e 40 80
e 61 80
e 1 81
e 24 81
e 44 81
e 61 81
e 70 81
e 22 82
e 25 82
e 26 82
e 36 82
e 63 82
e 64 82
e 67 82
e 71 82
e 81 82
e 12 83
e 15 83
e 28 83
e 32 83
e 38 83
e 44 83
e 45 83
e 51 83
e 60 83
e 67 83
e 69 83
e 70 83
e 73 83
e 3 84
e 4 84
e 6 84
e 7 84
e 13 84
e 28 84
e 36 84
e 38 84
e 40 84
e 61 84
e 75 84
e 18 85
e 20 85
e 23 85
e 48 85
e 50 85
e 72 85
e 14 86
e 15 86
e 21 86
e 22 86
e 24 86
e 25 86
e 35 86
e 37 86
e 40 86
e 60 86
e 65 86
e 69 86
e 72 86
e 79 86
e 85 86
e 10 87
e 13 87
e 20 87
e 23 87
e 54 87
e 55 87
e 65 87
e 82 87
e 84 87
e 10 88
e 13 88
e 17 88
e 22 88
e 25 88
e 37 88
e 43 88
e 69 88
e 82 88
e 8 89
e 10 89
e 13 89
e 37 89
e 38 89
e 52 89
e 55 89
e 76 89
e 82 89
e 3 90
e 9 90
e 19 90
e 44 90
e 49 90
e 63 90
e 66 90
e 73 90
e 78 90
e 82 90
e 4 91
e 9 91
e 21 91
e 36 91
e 54 91
e 58 91
e 69 91
e 72 91
e 73 91
e 75 91
e 76 91
e 84 91
e 87 91
e 14 92
e 16 92
e 20 92
e 34 92
e 44 92
e 56 92
e 67 92
e 68 92
e 34 93
e 55 93
e 74 93
e 86 93
e 91 93
e 1 94
e 10 94
e 16 94
e 53 94
e 54 94
e 57 94
e 58 94
e 75 94
e 76 94
e 86 94
e 1 95
e 13 95
e 21 95
e 30 95
e 32 95
e 34 95
e 35 95
e 39 95
e 45 95
e 65 95
e 68 95
e 77 95
e 93 95
e 2 96
e 3 96
e 20 96
e 21 96
e 48 96
e 68 96
e 75 96
e 88 96
e 1 97
e 2 97
e 9 97
e 20 97
e 35 97
e 38 97
e 60 97
e 87 97
e 91 97
e 96 97
e 10 98
e 23 98
e 27 98
e 54 98
e 55 98
e 3 99
e 4 99
e 5 99
e 9 99
e 14 99
e 20 99
e 25 99
e 31 99
e 44 99
e 48 99
e 51 99
e 59 99
e 60 99
e 63 99
e 82 99
e 1 100
e 19 100
e 22 100
e 26 100
e 29 100
e 40 100
e 49 100
e 97 100
